
Log started (V11.0.0) Wed Apr 23 19:02:19 2008

Tried aggregator 1 time.
Reduced MIP has 540 rows, 20001 columns, and 40040 nonzeros.
Presolve time =    0.14 sec.
Clique table members: 500.
MIP emphasis: balance optimality and feasibility.
MIP search method: dynamic search.
Parallel mode: none, using 1 thread.
Root relaxation solution time =    1.20 sec.

        Nodes                                         Cuts/
   Node  Left     Objective  IInf  Best Integer     Best Node    ItCnt     Gap

*     0+    0                        75124.0000     1275.6164      928   98.30%
*     0+    0                         1346.0000     1275.6164      928    5.23%
      0     0     1276.2385    81     1346.0000      Fract: 6      975    5.18%
*     0+    0                         1339.0000     1276.2385      975    4.69%
      0     0     1276.7782    83     1339.0000     Covers: 2     1008    4.65%
      0     0     1276.8427    91     1339.0000     Covers: 3     1045    4.64%
      0     0     1276.9446    93     1339.0000     Covers: 1     1090    4.63%
*     0+    0                         1336.0000     1276.9446     1090    4.42%
      0     0     1276.9452    95     1336.0000     Covers: 1     1091    4.42%
*     0+    0                         1332.0000     1276.9452     1091    4.13%
      0     0     1276.9454    97     1332.0000     Covers: 1     1093    4.13%
*     0+    0                         1330.0000     1276.9454     1093    3.99%
*     0+    0                         1329.0000     1276.9454     1093    3.92%
*     0+    0                         1324.0000     1276.9454     1093    3.55%
      0     2     1276.9454    97     1324.0000     1276.9454     1093    3.55%
    100    93     1278.0000    77     1324.0000     1276.9546     4183    3.55%
*   200+  186                         1323.0000     1276.9546     7599    3.48%
    200   188     1279.0000    78     1323.0000     1276.9546     7599    3.48%
    300   272     1281.0000    75     1323.0000     1276.9546    12198    3.48%
    400   365     1282.3861    77     1323.0000     1276.9546    18495    3.48%
    500   449     1284.0000    74     1323.0000     1276.9546    25356    3.48%
    600   478     1284.0000   110     1323.0000     1283.2841    35787    3.00%
    700   509     1285.0000    80     1323.0000     1283.2841    47759    3.00%
    800   503        cutoff           1323.0000     1283.2841    54267    3.00%
    900   520     1287.0000    97     1323.0000     1283.2841    61846    3.00%
   1000   538     1288.0000    91     1323.0000     1283.2841    69969    3.00%
Elapsed time = 343.55 sec. (tree size =  7.08 MB, solutions = 9)
   1100   563     1288.0982    99     1323.0000     1283.2841    77592    3.00%
   1200   611     1290.0000    73     1323.0000     1283.2841    83057    3.00%
   1300   694     1293.0000    74     1323.0000     1283.2841    87152    3.00%
   1400   738     1294.0000    75     1323.0000     1283.2841    88999    3.00%
   1500   780     1296.0000    73     1323.0000     1283.2841    90664    3.00%
   1600   848     1298.4319    75     1323.0000     1283.2841    93179    3.00%
   1700   908     1299.0608    76     1323.0000     1283.2841    96793    3.00%
   1800   966     1299.7721    77     1323.0000     1283.2841   100443    3.00%
   1900  1022     1302.9093    77     1323.0000     1283.2841   104677    3.00%
   2000  1098     1303.1731    70     1323.0000     1283.2841   107634    3.00%
Elapsed time = 443.25 sec. (tree size = 15.76 MB, solutions = 9)
   2100  1176     1304.0000    73     1323.0000     1283.2841   110434    3.00%
   2200  1243     1307.2621    72     1323.0000     1283.2841   113607    3.00%
   2300  1315     1309.1361    76     1323.0000     1283.2841   116695    3.00%
   2400  1383     1311.0000    65     1323.0000     1283.2841   120066    3.00%
   2500  1453     1314.1115    69     1323.0000     1283.2841   124235    3.00%
   2600  1525     1317.7558    69     1323.0000     1283.2841   128039    3.00%
   2700  1591     1322.0000    61     1323.0000     1283.2841   132482    3.00%
   2800  1642     1284.0000   158     1323.0000     1283.7743   142459    2.96%
   2900  1737     1285.0000    92     1323.0000     1283.7743   152333    2.96%
   3000  1836     1285.0000   109     1323.0000     1283.7743   159434    2.96%
Elapsed time = 577.03 sec. (tree size = 26.37 MB, solutions = 9)
   3100  1925     1286.0000    88     1323.0000     1283.7743   175312    2.96%
   3200  2013     1286.0000   101     1323.0000     1283.7743   196124    2.96%
   3300  2106     1288.0000    79     1323.0000     1283.7743   207693    2.96%
   3400  2197     1289.1195    94     1323.0000     1283.7743   215507    2.96%
   3500  2288     1291.0000    85     1323.0000     1283.7743   221042    2.96%
   3600  2375     1292.0000    85     1323.0000     1283.7743   227973    2.96%
   3700  2465     1295.1648    77     1323.0000     1283.7743   236102    2.96%
   3800  2549     1295.7439    74     1323.0000     1283.7743   248345    2.96%
   3900  2640     1296.0000    77     1323.0000     1283.7743   256099    2.96%
   4000  2727     1297.0000    72     1323.0000     1283.7743   270897    2.96%
Elapsed time = 857.31 sec. (tree size = 39.52 MB, solutions = 9)
   4100  2798     1297.0000    73     1323.0000     1283.7743   305011    2.96%
   4200  2870     1298.2947    71     1323.0000     1283.7743   345867    2.96%
   4300  2937     1299.4288    71     1323.0000     1283.7743   418624    2.96%
   4400  3016     1299.0000    70     1323.0000     1283.7743   455172    2.96%
   4500  3097     1301.0000    68     1323.0000     1283.7743   456994    2.96%
   4600  3169     1303.0000    66     1323.0000     1283.7743   459245    2.96%
   4700  3243     1305.7807    61     1323.0000     1283.7743   461150    2.96%
   4800  3309     1307.0000    62     1323.0000     1283.7743   463885    2.96%
   4900  3373     1307.0000    57     1323.0000     1283.7743   466700    2.96%
   5000  3441     1310.0000    56     1323.0000     1283.7743   468838    2.96%
Elapsed time = 1148.08 sec. (tree size = 50.41 MB, solutions = 9)
   5100  3509     1313.2594    62     1323.0000     1283.7743   470926    2.96%
   5200  3575     1314.9388    54     1323.0000     1283.7743   473268    2.96%
   5300  3635     1316.0000    56     1323.0000     1283.7743   476087    2.96%
   5400  3702     1317.0000    56     1323.0000     1283.7743   478742    2.96%
   5500  3765     1318.0000    54     1323.0000     1283.7743   481759    2.96%
   5600  3806    infeasible           1323.0000     1283.7743   484691    2.96%
   5700  3870     1288.0000   158     1323.0000     1284.0000   592303    2.95%
   5800  3962     1289.0000   114     1323.0000     1284.0000   625866    2.95%
   5900  4061     1289.0000   101     1323.0000     1284.0000   634570    2.95%
   6000  4157     1289.0000   115     1323.0000     1284.0000   647701    2.95%
Elapsed time = 1786.98 sec. (tree size = 63.02 MB, solutions = 9)
   6100  4253     1289.0000   112     1323.0000     1284.0000   660333    2.95%
   6200  4342     1291.0000   105     1323.0000     1284.0000   674964    2.95%
   6300  4439     1291.0000   115     1323.0000     1284.0000   684222    2.95%
   6400  4534     1292.0000    80     1323.0000     1284.0000   693586    2.95%
   6500  4626     1295.0000    90     1323.0000     1284.0000   702668    2.95%
   6600  4708     1296.0000    67     1323.0000     1284.0000   709591    2.95%
   6700  4788     1296.0000    86     1323.0000     1284.0000   715553    2.95%
   6800  4873     1297.0000    90     1323.0000     1284.0000   722021    2.95%
   6900  4950     1299.0000    88     1323.0000     1284.0000   732328    2.95%
   7000  5032     1302.0000    80     1323.0000     1284.0000   738012    2.95%
Elapsed time = 2060.16 sec. (tree size = 81.39 MB, solutions = 9)
   7100  5112     1304.0000    79     1323.0000     1284.0000   744759    2.95%
   7200  5188     1306.0000    66     1323.0000     1284.0000   749037    2.95%
   7300  5265     1309.0000    70     1323.0000     1284.0000   753240    2.95%
   7400  5340     1309.0000    70     1323.0000     1284.0000   757260    2.95%
   7500  5412     1312.0000    69     1323.0000     1284.0000   763822    2.95%
   7600  5490     1312.8704    66     1323.0000     1284.0000   769393    2.95%
   7700  5558     1315.0000    62     1323.0000     1284.0000   773840    2.95%
   7800  5622    infeasible           1323.0000     1284.0000   776379    2.95%
   7900  5706     1287.0000   209     1323.0000     1284.0000   866699    2.95%
   8000  5801     1291.0000   141     1323.0000     1284.0000   888443    2.95%
Elapsed time = 2562.77 sec. (tree size = 97.80 MB, solutions = 9)
   8100  5899     1294.0000   132     1323.0000     1284.0000   904370    2.95%
   8200  5996     1290.0000   195     1323.0000     1284.0000   939303    2.95%
   8300  6091     1296.0000   104     1323.0000     1284.0000   954020    2.95%
   8400  6187     1289.0000   208     1323.0000     1284.0000   991756    2.95%
   8500  6284     1290.0000   138     1323.0000     1284.0000  1003528    2.95%
   8600  6380     1288.0000   174     1323.0000     1284.0000  1037253    2.95%
   8700  6479     1289.0000   113     1323.0000     1284.0000  1046359    2.95%
   8800  6575     1290.0000   150     1323.0000     1284.0000  1068142    2.95%
   8900  6672     1293.0000   108     1323.0000     1284.0000  1080422    2.95%
   9000  6768     1290.0000   128     1323.0000     1284.0000  1103283    2.95%
Elapsed time = 3260.03 sec. (tree size = 117.98 MB, solutions = 9)
   9100  6867     1291.0000   141     1323.0000     1284.0000  1122030    2.95%
   9200  6959     1289.0000   102     1323.0000     1284.0000  1164213    2.95%
   9300  7058     1289.0000   130     1323.0000     1284.0000  1172527    2.95%
   9400  7151     1289.0000   151     1323.0000     1284.0000  1215009    2.95%
   9500  7251     1289.0000   125     1323.0000     1284.0000  1221302    2.95%
   9600  7347     1288.0000   174     1323.0000     1284.0000  1264136    2.95%
   9700  7447     1288.0000   150     1323.0000     1284.0000  1279474    2.95%
   9800  7544     1287.0000   214     1323.0000     1284.0000  1327881    2.95%
   9900  7643     1288.0000   150     1323.0000     1284.0000  1342216    2.95%
  10000  7740     1293.0000   158     1323.0000     1284.0000  1368559    2.95%
Elapsed time = 4085.69 sec. (tree size = 138.55 MB, solutions = 9)
Nodefile size = 11.08 MB (6.14 MB after compression)
  10100  7837     1294.0000   102     1323.0000     1284.0000  1385252    2.95%
  10200  7934     1287.0000   174     1323.0000     1284.0000  1428523    2.95%
  10300  8032     1289.0000   153     1323.0000     1284.0000  1447483    2.95%
  10400  8130     1293.0000   176     1323.0000     1284.0000  1470117    2.95%
  10500  8228     1294.0000    99     1323.0000     1284.0000  1487005    2.95%
  10600  8326     1293.0000   174     1323.0000     1284.0000  1513575    2.95%
  10700  8424     1296.0000   101     1323.0000     1284.0000  1520634    2.95%
  10800  8522     1293.0000   142     1323.0000     1284.0000  1546204    2.95%
  10900  8620     1294.0000    94     1323.0000     1284.0000  1553170    2.95%
  11000  8717     1287.0000   165     1323.0000     1284.0000  1584316    2.95%
Elapsed time = 4772.86 sec. (tree size = 159.62 MB, solutions = 9)
Nodefile size = 31.71 MB (18.41 MB after compression)
  11100  8816     1288.0000   123     1323.0000     1284.0000  1598658    2.95%
  11200  8915     1293.0000   160     1323.0000     1284.0000  1623163    2.95%
  11300  9014     1294.0000   115     1323.0000     1284.0000  1634133    2.95%
  11400  9111     1291.0000   126     1323.0000     1284.0000  1653128    2.95%
  11500  9206     1292.0000   115     1323.0000     1284.0000  1681335    2.95%
  11600  9295     1291.0000   140     1323.0000     1284.0000  1721300    2.95%
  11700  9393     1291.0000   142     1323.0000     1284.0000  1740232    2.95%
  11800  9491     1290.0000   167     1323.0000     1284.0000  1766382    2.95%
  11900  9590     1291.0000   123     1323.0000     1284.0000  1778672    2.95%
  12000  9687     1291.0000   173     1323.0000     1284.0000  1804048    2.95%
Elapsed time = 5432.19 sec. (tree size = 180.83 MB, solutions = 9)
Nodefile size = 53.43 MB (31.40 MB after compression)
  12100  9784     1294.0000   124     1323.0000     1284.0000  1819857    2.95%
  12200  9880     1288.0000   138     1323.0000     1284.0000  1857183    2.95%
  12300  9979     1289.0000   142     1323.0000     1284.0000  1874900    2.95%
  12400 10074     1289.0000   130     1323.0000     1284.0000  1907546    2.95%
  12500 10171     1290.0000   110     1323.0000     1284.0000  1924594    2.95%
  12600 10269     1289.0000   191     1323.0000     1284.0000  1950986    2.95%
  12700 10367     1291.0000   129     1323.0000     1284.0000  1964484    2.95%
  12800 10463     1288.0000   115     1323.0000     1284.0000  1992678    2.95%
  12900 10562     1289.0000   143     1323.0000     1284.0000  1999852    2.95%
  13000 10659     1290.0000   151     1323.0000     1284.0000  2036644    2.95%
Elapsed time = 6224.94 sec. (tree size = 202.33 MB, solutions = 9)
Nodefile size = 74.54 MB (46.99 MB after compression)
  13100 10759     1290.0000   137     1323.0000     1284.0000  2046094    2.95%
  13200 10855     1288.0000   202     1323.0000     1284.0000  2083075    2.95%
  13300 10953     1289.0000   124     1323.0000     1284.0000  2097052    2.95%
  13400 11049     1288.0000   220     1323.0000     1284.0000  2140467    2.95%
  13500 11147     1289.0000   131     1323.0000     1284.0000  2149384    2.95%
  13600 11244     1291.0000   139     1323.0000     1284.0000  2169137    2.95%
  13700 11343     1292.0000   127     1323.0000     1284.0000  2184551    2.95%
  13800 11439     1287.0000   223     1323.0000     1284.0000  2235526    2.95%
  13900 11538     1288.0000   122     1323.0000     1284.0000  2243610    2.95%
  14000 11631     1287.0000   156     1323.0000     1284.0000  2287451    2.95%
Elapsed time = 7093.89 sec. (tree size = 224.10 MB, solutions = 9)
Nodefile size = 96.44 MB (63.05 MB after compression)
  14100 11731     1287.0000   179     1323.0000     1284.0000  2308151    2.95%

Cover cuts applied:  941
Gomory fractional cuts applied:  18

Solution pool: 9 solutions saved.

MIP - Time limit exceeded, integer feasible:  Objective = 1.3230000000e+003
Current MIP best bound = 1.2840000000e+003 (gap = 39, 2.95%)
Solution time = 7200.23 sec.  Iterations = 2320146  Nodes = 14117 (11743)


Incumbent solution
Variable Name           Solution Value
Cmax                       1323.000000
X_1_38                        1.000000
X_2_39                        1.000000
X_3_17                        1.000000
X_4_16                        1.000000
X_5_18                        1.000000
X_6_21                        1.000000
X_7_32                        1.000000
X_8_7                         1.000000
X_9_30                        1.000000
X_10_31                       1.000000
X_11_23                       1.000000
X_12_12                       1.000000
X_13_29                       1.000000
X_14_5                        1.000000
X_15_40                       1.000000
X_16_40                       1.000000
X_17_21                       1.000000
X_18_35                       1.000000
X_19_25                       1.000000
X_20_34                       1.000000
X_21_3                        1.000000
X_22_15                       1.000000
X_23_3                        1.000000
X_24_40                       1.000000
X_25_39                       1.000000
X_26_35                       1.000000
X_27_6                        1.000000
X_28_29                       1.000000
X_29_27                       1.000000
X_30_17                       1.000000
X_31_3                        1.000000
X_32_39                       1.000000
X_33_30                       1.000000
X_34_14                       1.000000
X_35_16                       1.000000
X_36_32                       1.000000
X_37_10                       1.000000
X_38_32                       1.000000
X_39_5                        1.000000
X_40_24                       1.000000
X_41_8                        1.000000
X_42_32                       1.000000
X_43_10                       1.000000
X_44_38                       1.000000
X_45_1                        1.000000
X_46_29                       1.000000
X_47_25                       1.000000
X_48_26                       1.000000
X_49_7                        1.000000
X_50_23                       1.000000
X_51_17                       1.000000
X_52_27                       1.000000
X_53_9                        1.000000
X_54_28                       1.000000
X_55_3                        1.000000
X_56_21                       1.000000
X_57_2                        1.000000
X_58_40                       1.000000
X_59_5                        1.000000
X_60_1                        1.000000
X_61_35                       1.000000
X_62_36                       1.000000
X_63_11                       1.000000
X_64_31                       1.000000
X_65_30                       1.000000
X_66_13                       1.000000
X_67_15                       1.000000
X_68_2                        1.000000
X_69_35                       1.000000
X_70_34                       1.000000
X_71_28                       1.000000
X_72_5                        1.000000
X_73_26                       1.000000
X_74_27                       1.000000
X_75_13                       1.000000
X_76_5                        1.000000
X_77_2                        1.000000
X_78_1                        1.000000
X_79_36                       1.000000
X_80_4                        1.000000
X_81_38                       1.000000
X_82_6                        1.000000
X_83_24                       1.000000
X_84_6                        1.000000
X_85_29                       1.000000
X_86_14                       1.000000
X_87_14                       1.000000
X_88_19                       1.000000
X_89_30                       1.000000
X_90_10                       1.000000
X_91_10                       1.000000
X_92_20                       1.000000
X_93_4                        1.000000
X_94_6                        1.000000
X_95_24                       1.000000
X_96_3                        1.000000
X_97_17                       1.000000
X_98_4                        1.000000
X_99_22                       1.000000
X_100_4                       1.000000
X_101_30                      1.000000
X_102_40                      1.000000
X_103_32                      1.000000
X_104_21                      1.000000
X_105_11                      1.000000
X_106_34                      1.000000
X_107_19                      1.000000
X_108_8                       1.000000
X_109_37                      1.000000
X_110_8                       1.000000
X_111_12                      1.000000
X_112_38                      1.000000
X_113_8                       1.000000
X_114_36                      1.000000
X_115_14                      1.000000
X_116_22                      1.000000
X_117_35                      1.000000
X_118_22                      1.000000
X_119_17                      1.000000
X_120_21                      1.000000
X_121_18                      1.000000
X_122_6                       1.000000
X_123_9                       1.000000
X_124_22                      1.000000
X_125_26                      1.000000
X_126_15                      1.000000
X_127_10                      1.000000
X_128_6                       1.000000
X_129_2                       1.000000
X_130_17                      1.000000
X_131_22                      1.000000
X_132_8                       1.000000
X_133_27                      1.000000
X_134_10                      1.000000
X_135_25                      1.000000
X_136_39                      1.000000
X_137_31                      1.000000
X_138_21                      1.000000
X_139_7                       1.000000
X_140_31                      1.000000
X_141_1                       1.000000
X_142_13                      1.000000
X_143_8                       1.000000
X_144_15                      1.000000
X_145_21                      1.000000
X_146_26                      1.000000
X_147_6                       1.000000
X_148_28                      1.000000
X_149_11                      1.000000
X_150_36                      1.000000
X_151_35                      1.000000
X_152_3                       1.000000
X_153_4                       1.000000
X_154_2                       1.000000
X_155_36                      1.000000
X_156_27                      1.000000
X_157_25                      1.000000
X_158_25                      1.000000
X_159_15                      1.000000
X_160_22                      1.000000
X_161_19                      1.000000
X_162_23                      1.000000
X_163_18                      1.000000
X_164_26                      1.000000
X_165_27                      1.000000
X_166_4                       1.000000
X_167_7                       1.000000
X_168_28                      1.000000
X_169_33                      1.000000
X_170_37                      1.000000
X_171_31                      1.000000
X_172_27                      1.000000
X_173_13                      1.000000
X_174_14                      1.000000
X_175_21                      1.000000
X_176_10                      1.000000
X_177_16                      1.000000
X_178_27                      1.000000
X_179_36                      1.000000
X_180_24                      1.000000
X_181_17                      1.000000
X_182_17                      1.000000
X_183_40                      1.000000
X_184_20                      1.000000
X_185_35                      1.000000
X_186_16                      1.000000
X_187_23                      1.000000
X_188_4                       1.000000
X_189_21                      1.000000
X_190_10                      1.000000
X_191_13                      1.000000
X_192_20                      1.000000
X_193_20                      1.000000
X_194_39                      1.000000
X_195_18                      1.000000
X_196_25                      1.000000
X_197_24                      1.000000
X_198_25                      1.000000
X_199_19                      1.000000
X_200_9                       1.000000
X_201_23                      1.000000
X_202_12                      1.000000
X_203_31                      1.000000
X_204_2                       1.000000
X_205_24                      1.000000
X_206_8                       1.000000
X_207_3                       1.000000
X_208_26                      1.000000
X_209_23                      1.000000
X_210_20                      1.000000
X_211_38                      1.000000
X_212_26                      1.000000
X_213_8                       1.000000
X_214_24                      1.000000
X_215_18                      1.000000
X_216_4                       1.000000
X_217_12                      1.000000
X_218_7                       1.000000
X_219_28                      1.000000
X_220_33                      1.000000
X_221_14                      1.000000
X_222_7                       1.000000
X_223_3                       1.000000
X_224_1                       1.000000
X_225_28                      1.000000
X_226_30                      1.000000
X_227_16                      1.000000
X_228_30                      1.000000
X_229_37                      1.000000
X_230_22                      1.000000
X_231_16                      1.000000
X_232_9                       1.000000
X_233_26                      1.000000
X_234_7                       1.000000
X_235_8                       1.000000
X_236_24                      1.000000
X_237_29                      1.000000
X_238_28                      1.000000
X_239_6                       1.000000
X_240_5                       1.000000
X_241_7                       1.000000
X_242_36                      1.000000
X_243_37                      1.000000
X_244_27                      1.000000
X_245_4                       1.000000
X_246_12                      1.000000
X_247_13                      1.000000
X_248_35                      1.000000
X_249_11                      1.000000
X_250_40                      1.000000
X_251_35                      1.000000
X_252_39                      1.000000
X_253_23                      1.000000
X_254_39                      1.000000
X_255_33                      1.000000
X_256_40                      1.000000
X_257_37                      1.000000
X_258_18                      1.000000
X_259_26                      1.000000
X_260_30                      1.000000
X_261_30                      1.000000
X_262_33                      1.000000
X_263_34                      1.000000
X_264_9                       1.000000
X_265_36                      1.000000
X_266_1                       1.000000
X_267_5                       1.000000
X_268_27                      1.000000
X_269_23                      1.000000
X_270_12                      1.000000
X_271_12                      1.000000
X_272_32                      1.000000
X_273_38                      1.000000
X_274_14                      1.000000
X_275_17                      1.000000
X_276_37                      1.000000
X_277_19                      1.000000
X_278_1                       1.000000
X_279_16                      1.000000
X_280_32                      1.000000
X_281_26                      1.000000
X_282_5                       1.000000
X_283_23                      1.000000
X_284_29                      1.000000
X_285_9                       1.000000
X_286_28                      1.000000
X_287_2                       1.000000
X_288_21                      1.000000
X_289_29                      1.000000
X_290_13                      1.000000
X_291_26                      1.000000
X_292_33                      1.000000
X_293_21                      1.000000
X_294_18                      1.000000
X_295_19                      1.000000
X_296_20                      1.000000
X_297_31                      1.000000
X_298_33                      1.000000
X_299_11                      1.000000
X_300_8                       1.000000
X_301_20                      1.000000
X_302_19                      1.000000
X_303_27                      1.000000
X_304_31                      1.000000
X_305_27                      1.000000
X_306_34                      1.000000
X_307_9                       1.000000
X_308_3                       1.000000
X_309_29                      1.000000
X_310_38                      1.000000
X_311_32                      1.000000
X_312_7                       1.000000
X_313_19                      1.000000
X_314_14                      1.000000
X_315_13                      1.000000
X_316_39                      1.000000
X_317_13                      1.000000
X_318_3                       1.000000
X_319_29                      1.000000
X_320_24                      1.000000
X_321_34                      1.000000
X_322_36                      1.000000
X_323_39                      1.000000
X_324_32                      1.000000
X_325_34                      1.000000
X_326_7                       1.000000
X_327_37                      1.000000
X_328_29                      1.000000
X_329_4                       1.000000
X_330_14                      1.000000
X_331_20                      1.000000
X_332_8                       1.000000
X_333_30                      1.000000
X_334_25                      1.000000
X_335_9                       1.000000
X_336_3                       1.000000
X_337_33                      1.000000
X_338_34                      1.000000
X_339_18                      1.000000
X_340_30                      1.000000
X_341_29                      1.000000
X_342_37                      1.000000
X_343_6                       1.000000
X_344_25                      1.000000
X_345_10                      1.000000
X_346_36                      1.000000
X_347_13                      1.000000
X_348_22                      1.000000
X_349_24                      1.000000
X_350_38                      1.000000
X_351_2                       1.000000
X_352_10                      1.000000
X_353_13                      1.000000
X_354_18                      1.000000
X_355_23                      1.000000
X_356_2                       1.000000
X_357_19                      1.000000
X_358_21                      1.000000
X_359_19                      1.000000
X_360_29                      1.000000
X_361_1                       1.000000
X_362_31                      1.000000
X_363_38                      1.000000
X_364_22                      1.000000
X_365_39                      1.000000
X_366_9                       1.000000
X_367_14                      1.000000
X_368_30                      1.000000
X_369_31                      1.000000
X_370_39                      1.000000
X_371_34                      1.000000
X_372_18                      1.000000
X_373_3                       1.000000
X_374_28                      1.000000
X_375_4                       1.000000
X_376_1                       1.000000
X_377_17                      1.000000
X_378_36                      1.000000
X_379_19                      1.000000
X_380_2                       1.000000
X_381_12                      1.000000
X_382_15                      1.000000
X_383_27                      1.000000
X_384_8                       1.000000
X_385_6                       1.000000
X_386_23                      1.000000
X_387_33                      1.000000
X_388_40                      1.000000
X_389_30                      1.000000
X_390_9                       1.000000
X_391_15                      1.000000
X_392_22                      1.000000
X_393_20                      1.000000
X_394_38                      1.000000
X_395_11                      1.000000
X_396_31                      1.000000
X_397_32                      1.000000
X_398_25                      1.000000
X_399_1                       1.000000
X_400_24                      1.000000
X_401_19                      1.000000
X_402_32                      1.000000
X_403_14                      1.000000
X_404_33                      1.000000
X_405_11                      1.000000
X_406_10                      1.000000
X_407_37                      1.000000
X_408_11                      1.000000
X_409_24                      1.000000
X_410_11                      1.000000
X_411_20                      1.000000
X_412_9                       1.000000
X_413_15                      1.000000
X_414_22                      1.000000
X_415_25                      1.000000
X_416_12                      1.000000
X_417_14                      1.000000
X_418_32                      1.000000
X_419_33                      1.000000
X_420_19                      1.000000
X_421_5                       1.000000
X_422_2                       1.000000
X_423_26                      1.000000
X_424_28                      1.000000
X_425_16                      1.000000
X_426_5                       1.000000
X_427_40                      1.000000
X_428_16                      1.000000
X_429_7                       1.000000
X_430_15                      1.000000
X_431_5                       1.000000
X_432_31                      1.000000
X_433_23                      1.000000
X_434_40                      1.000000
X_435_11                      1.000000
X_436_35                      1.000000
X_437_7                       1.000000
X_438_25                      1.000000
X_439_16                      1.000000
X_440_1                       1.000000
X_441_37                      1.000000
X_442_16                      1.000000
X_443_4                       1.000000
X_444_12                      1.000000
X_445_36                      1.000000
X_446_39                      1.000000
X_447_34                      1.000000
X_448_1                       1.000000
X_449_6                       1.000000
X_450_35                      1.000000
X_451_10                      1.000000
X_452_15                      1.000000
X_453_17                      1.000000
X_454_37                      1.000000
X_455_15                      1.000000
X_456_34                      1.000000
X_457_11                      1.000000
X_458_26                      1.000000
X_459_28                      1.000000
X_460_22                      1.000000
X_461_28                      1.000000
X_462_21                      1.000000
X_463_17                      1.000000
X_464_40                      1.000000
X_465_33                      1.000000
X_466_1                       1.000000
X_467_9                       1.000000
X_468_9                       1.000000
X_469_38                      1.000000
X_470_11                      1.000000
X_471_5                       1.000000
X_472_35                      1.000000
X_473_20                      1.000000
X_474_35                      1.000000
X_475_2                       1.000000
X_476_11                      1.000000
X_477_31                      1.000000
X_478_33                      1.000000
X_479_37                      1.000000
X_480_28                      1.000000
X_481_2                       1.000000
X_482_16                      1.000000
X_483_12                      1.000000
X_484_37                      1.000000
X_485_18                      1.000000
X_486_12                      1.000000
X_487_12                      1.000000
X_488_38                      1.000000
X_489_13                      1.000000
X_490_34                      1.000000
X_491_18                      1.000000
X_492_18                      1.000000
X_493_15                      1.000000
X_494_3                       1.000000
X_495_6                       1.000000
X_496_20                      1.000000
X_497_8                       1.000000
X_498_16                      1.000000
X_499_22                      1.000000
X_500_20                      1.000000
All other variables in the range 1-20001 are 0.
